c read Graph
c width = 207
c time = 526 ms
c width = 16
c time = 753 ms
c width = 15
c time = 888 ms
c width = 14
c time = 917 ms
c width = 13
c time = 1032 ms
c width = 12
c time = 3045 ms
c width = 12
c time = 3821 ms
s td 200 13 220
b 1 1 2 21
b 2 2 3 21 22
b 3 18 19 39 40
b 4 3 21 22 41
b 5 18 39 40 60
b 6 161 181 182 202
b 7 180 199 200 219
b 8 161 182 202 203
b 9 180 199 218 219
b 10 3 4 5 24
b 11 3 5 23 24 42 61
b 12 5 23 24 42 44 61 63
b 13 5 24 42 44 61 63 82
b 14 5 24 44 61 63 82 101
b 15 5 24 26 44 45 63 82 101
b 16 5 26 44 45 63 65 82 84 101
b 17 5 26 45 63 65 82 84 101 103
b 18 5 26 45 65 82 84 101 103 122
b 19 82 101 102 103 122
b 20 5 26 45 65 84 101 103 122 124 145 166 185 206
b 21 5 26 45 65 84 103 122 124 145 166 185 206
b 22 5 26 45 65 84 103 105 124 145 166 185 206
b 23 84 103 104 105 124
b 24 5 26 45 65 84 86 105 124 145 166 185 206
b 25 65 84 85 86 105
b 26 5 26 45 65 66 86 105 124 145 166 185 206
b 27 5 26 45 47 66 86 105 124 145 166 185 206
b 28 26 45 46 47 66
b 29 5 26 47 66 86 105 124 126 145 166 185 206
b 30 5 26 47 66 86 105 107 126 145 166 185 206
b 31 5 26 47 66 86 87 107 126 145 166 185 206
b 32 5 26 47 66 87 107 126 145 147 166 185 206
b 33 126 145 146 147 166
b 34 5 26 47 66 87 107 126 147 166 185 187 206
b 35 5 26 47 66 87 107 126 147 166 168 187 206
b 36 5 26 47 66 87 107 126 128 147 168 187 206
b 37 5 26 47 66 68 87 107 128 147 168 187 206
b 38 5 26 47 68 87 107 128 147 149 168 187 206
b 39 5 26 47 68 87 107 108 128 149 168 187 206
b 40 5 26 47 68 87 89 108 128 149 168 187 206
b 41 5 26 47 68 89 108 128 129 149 168 187 206
b 42 5 9 26 28 47 68 89 108 129 149 168 187 206
b 43 9 28 47 68 89 108 129 149 168 187 189 206 210
b 44 168 187 189 206 210
b 45 168 187 189 206 208 210
b 46 189 208 209 210
b 47 187 206 207 208
b 48 168 187 188 189 208
b 49 9 28 47 68 89 108 110 129 149 168 189 210
b 50 89 108 109 110 129
b 51 9 28 47 49 68 89 110 129 149 168 189 210
b 52 9 28 49 68 70 89 110 129 149 168 189 210
b 53 9 28 30 49 70 89 110 129 149 168 189 210
b 54 9 30 49 70 89 110 129 149 168 170 189 210
b 55 9 30 49 70 89 110 129 149 150 170 189 210
b 56 9 30 49 70 89 110 129 131 150 170 189 210
b 57 110 129 130 131 150
b 58 9 30 49 70 89 91 110 131 150 170 189 210
b 59 9 30 49 51 70 91 110 131 150 170 189 210
b 60 30 49 50 51 70
b 61 9 30 51 70 72 91 110 131 150 170 189 210
b 62 9 30 51 72 91 110 112 131 150 170 189 210
b 63 91 110 111 112 131
b 64 9 30 51 72 91 93 112 131 150 170 189 210
b 65 72 91 92 93 112
b 66 9 30 51 72 93 112 131 150 170 189 191 210
b 67 9 30 51 72 93 112 131 150 170 171 191 210
b 68 9 30 51 72 93 112 131 150 152 171 191 210
b 69 131 150 151 152 171
b 70 9 13 30 32 51 72 93 112 131 152 171 191 210
b 71 13 32 34 51 53 72 93 112 131 152 171 191 210
b 72 32 34 51 52 53 72 93 112 131 152 171 191 210
b 73 13 32 33 34 53
b 74 13 34 53 72 93 112 131 152 171 173 191 192 210
b 75 13 34 53 72 93 112 131 152 173 191 192 210 212
b 76 13 34 53 72 93 112 131 152 173 192 194 212 214
b 77 13 34 53 72 74 93 112 131 152 173 194 214
b 78 13 34 53 55 74 93 112 131 152 173 194 214
b 79 34 53 54 55 74
b 80 53 72 73 74 93
b 81 173 192 193 194 212 214
b 82 193 212 213 214
b 83 191 210 211 212
b 84 152 171 172 173 192
b 85 9 11 13 30 32 51
b 86 11 12 13 32
b 87 9 10 11 30
b 88 11 30 31 32 51
b 89 170 189 190 191 210
b 90 51 70 71 72 91
b 91 70 89 90 91 110
b 92 149 168 169 170 189
b 93 9 28 29 30 49
b 94 49 68 69 70 89
b 95 28 47 48 49 68
b 96 5 7 9 26 28 47
b 97 5 6 7 26
b 98 7 26 27 28 47
b 99 7 8 9 28
b 100 68 87 88 89 108
b 101 128 147 148 149 168
b 102 47 66 67 68 87
b 103 107 126 127 128 147
b 104 147 166 167 168 187
b 105 166 185 186 187 206
b 106 86 105 106 107 126
b 107 105 124 125 126 145
b 108 101 103 122 124 145 164 166 185 206
b 109 101 103 122 124 143 145 164 185 206
b 110 103 122 123 124 143
b 111 124 143 144 145 164
b 112 101 122 143 164 185 204 206
b 113 101 122 141 143 164 185 204
b 114 101 121 122 141
b 115 122 141 143 164 183 185 204
b 116 164 183 184 185 204
b 117 122 141 143 162 164 183 204
b 118 141 162 183 203 204
b 119 141 161 162 183 203
b 120 161 162 182 183 203
b 121 122 141 142 143 162
b 122 143 162 163 164 183
b 123 185 204 205 206
b 124 145 164 165 166 185
b 125 63 82 83 84 103
b 126 44 63 64 65 84
b 127 5 24 25 26 45
b 128 61 81 82 101
b 129 42 61 62 63 82
b 130 23 42 43 44 63
b 131 3 23 41 42 61
b 132 3 22 23 41 42
b 133 114 133 134 135 154
b 134 13 34 55 74 93 114 135 154 173 175 194 214
b 135 13 34 55 74 93 112 131 133 152 173 194 214
b 136 13 34 55 74 93 114 133 135 154 173 194 214
b 137 13 34 55 74 93 112 114 133 152 173 194 214
b 138 13 34 55 74 93 114 133 152 154 173 194 214
b 139 13 34 55 74 93 114 135 154 156 175 194 214
b 140 13 34 55 74 93 95 114 135 156 175 194 214
b 141 74 93 94 95 114
b 142 13 34 55 74 95 114 116 135 156 175 194 214
b 143 13 34 55 74 95 116 135 137 156 175 194 214
b 144 13 34 55 74 76 95 116 137 156 175 194 214
b 145 13 34 55 76 95 97 116 137 156 175 194 214
b 146 13 34 55 76 97 116 118 137 156 175 194 214
b 147 13 34 55 76 97 118 120 137 139 156 175 194 214
b 148 13 17 34 36 55 76 97 118 120 139
b 149 13 15 17 34 36 55
b 150 13 14 15 34
b 151 15 16 17 36
b 152 15 34 35 36 55
b 153 17 36 55 76 97 99 118 120 139
b 154 17 36 55 76 78 97 99 118 120
b 155 78 97 98 99 118
b 156 17 36 55 57 76 78 97 99 120
b 157 57 76 77 78 97
b 158 17 36 57 78 80 99 120
b 159 80 99 100 120
b 160 17 36 57 59 78 80 99
b 161 17 36 38 57 59 78 80
b 162 38 57 58 59 78
b 163 17 38 59 60 80
b 164 17 18 38 59 60
b 165 18 38 39 59 60
b 166 17 36 37 38 57
b 167 59 78 79 80 99
b 168 36 55 56 57 76
b 169 99 118 119 120 139
b 170 118 120 137 139 156 175 194 196 214 216
b 171 175 194 195 196 214 216
b 172 195 214 215 216
b 173 118 120 137 139 156 175 177 196 216
b 174 156 175 176 177 196
b 175 118 120 137 139 156 158 177 196 216
b 176 120 139 158 177 196 198 216 218
b 177 177 196 197 198 216 218
b 178 197 216 217 218
b 179 120 139 158 160 177 198 218
b 180 139 158 160 177 179 198 218
b 181 160 179 180 198 218
b 182 179 180 198 199 218
b 183 139 158 159 160 179
b 184 158 177 178 179 198
b 185 120 139 140 160
b 186 137 156 157 158 177
b 187 118 137 138 139 158
b 188 97 116 117 118 137
b 189 76 95 96 97 116
b 190 55 74 75 76 95
b 191 116 135 136 137 156
b 192 95 114 115 116 135
b 193 135 154 155 156 175
b 194 154 173 174 175 194
b 195 93 112 113 114 133
b 196 112 131 132 133 152
b 197 133 152 153 154 173
b 198 200 219 220
b 199 181 201 202
b 200 19 20 40
1 2
2 4
3 200
3 5
4 132
5 165
6 199
6 8
7 198
7 9
8 120
9 182
10 11
11 131
11 12
12 130
12 13
13 129
13 14
14 128
14 15
15 127
15 16
16 126
16 17
17 125
17 18
18 20
18 19
20 108
20 21
21 22
22 24
22 23
24 26
24 25
26 27
27 29
27 28
29 107
29 30
30 106
30 31
31 32
32 34
32 33
34 105
34 35
35 104
35 36
36 103
36 37
37 102
37 38
38 101
38 39
39 40
40 100
40 41
41 42
42 96
42 43
43 49
43 44
44 45
45 46
45 47
45 48
49 50
49 51
51 95
51 52
52 94
52 53
53 93
53 54
54 92
54 55
55 56
56 58
56 57
58 91
58 59
59 61
59 60
61 90
61 62
62 64
62 63
64 66
64 65
66 89
66 67
67 68
68 70
68 69
70 85
70 71
71 74
71 73
71 72
74 84
74 75
75 83
75 76
76 81
76 77
77 80
77 78
78 135
78 79
81 82
85 88
85 87
85 86
96 99
96 97
96 98
108 109
108 124
109 112
109 111
109 110
112 123
112 113
113 114
113 115
115 116
115 117
117 118
117 121
117 122
118 119
119 120
131 132
133 136
134 194
134 139
134 136
135 196
135 137
136 138
137 195
137 138
138 197
139 193
139 140
140 142
140 141
142 192
142 143
143 191
143 144
144 145
144 190
145 189
145 146
146 188
146 147
147 170
147 148
148 149
148 153
149 150
149 151
149 152
153 169
153 154
154 155
154 156
156 168
156 157
156 158
158 159
158 160
160 167
160 161
161 163
161 166
161 162
163 164
164 165
170 171
170 173
171 172
173 174
173 175
175 187
175 186
175 176
176 177
176 179
177 178
179 185
179 180
180 181
180 183
180 184
181 182
